WARNING: for repeatability, setting FPU to use double precision
============================[ Problem Statistics ]=============================
|                                                                             |
|  Number of variables:            50                                         |
|  Number of clauses:             218                                         |
|  Parse time:                   0.00 s                                       |
|                                                                             |
============================[ Search Statistics ]==============================
| Conflicts |          ORIGINAL         |          LEARNT          | Progress |
|           |    Vars  Clauses Literals |    Limit  Clauses Lit/Cl |          |
===============================================================================
===============================================================================
restarts              : 1
conflicts             : 43             (29392 /sec)
decisions             : 53             (0.00 % random) (36227 /sec)
propagations          : 607            (414901 /sec)
conflict literals     : 159            (19.70 % deleted)
Memory used           : 20.00 MB
CPU time              : 0.001463 s

SATISFIABLE
